Geographic Exponential Decay
20 128 252 49 0 212 219 42 283 84 208 230 98 5 92 59 282 217 52 156 135
p edge 320 652
e 0 84 12.0
e 0 65 63.0
e 0 34 13.0
e 0 263 19.0
e 0 197 83.0
e 0 201 45.0
e 0 268 48.0
e 0 148 39.0
e 0 317 100.0
e 0 149 82.0
e 0 5 45.0
e 0 170 72.0
e 0 294 91.0
e 0 180 28.0
e 0 78 65.0
e 0 46 41.0
e 0 62 72.0
e 1 73 4.0
e 1 161 6.0
e 1 221 7.0
e 2 186 1.0
e 2 217 30.0
e 3 81 3.0
e 4 47 4.0
e 4 48 4.0
e 5 183 70.0
e 5 145 60.0
e 5 245 47.0
e 5 189 32.0
e 5 208 2.0
e 5 125 76.0
e 5 3 42.0
e 5 177 79.0
e 5 103 29.0
e 5 313 30.0
e 5 180 48.0
e 5 242 50.0
e 5 311 27.0
e 5 6 15.0
e 5 300 15.0
e 5 38 62.0
e 6 310 2.0
e 6 7 5.0
e 6 278 25.0
e 6 81 9.0
e 7 63 4.0
e 8 218 2.0
e 9 10 14.0
e 9 212 63.0
e 9 54 1.0
e 9 290 21.0
e 9 11 12.0
e 11 102 1.0
e 11 51 6.0
e 12 241 2.0
e 12 146 2.0
e 13 219 7.0
e 13 296 2.0
e 13 36 5.0
e 14 103 15.0
e 14 88 1.0
e 14 313 26.0
e 14 24 44.0
e 14 223 3.0
e 14 225 34.0
e 14 25 35.0
e 14 141 33.0
e 14 286 6.0
e 15 300 2.0
e 15 168 1.0
e 16 5 7.0
e 17 83 4.0
e 18 249 3.0
e 19 308 3.0
e 20 72 1.0
e 20 256 4.0
e 21 236 1.0
e 22 21 1.0
e 22 222 2.0
e 23 113 1.0
e 23 29 5.0
e 24 10 9.0
e 24 228 1.0
e 24 135 49.0
e 24 180 14.0
e 26 245 1.0
e 27 161 6.0
e 28 133 4.0
e 28 208 89.0
e 30 275 2.0
e 30 289 11.0
e 31 178 8.0
e 32 72 23.0
e 32 96 23.0
e 32 273 19.0
e 32 66 4.0
e 32 67 15.0
e 33 225 2.0
e 33 189 27.0
e 34 195 3.0
e 34 213 3.0
e 35 188 1.0
e 35 197 2.0
e 35 47 7.0
e 36 110 9.0
e 36 60 6.0
e 37 87 3.0
e 38 213 21.0
e 38 266 3.0
e 38 163 18.0
e 38 101 23.0
e 39 70 2.0
e 39 134 1.0
e 40 13 2.0
e 40 99 1.0
e 41 71 5.0
e 42 289 92.0
e 42 305 98.0
e 42 23 67.0
e 42 140 4.0
e 42 13 88.0
e 42 277 41.0
e 42 9 58.0
e 42 156 3.0
e 42 185 57.0
e 42 182 49.0
e 42 127 60.0
e 42 34 35.0
e 42 81 78.0
e 42 278 46.0
e 42 123 43.0
e 42 138 42.0
e 42 63 95.0
e 43 274 2.0
e 44 49 75.0
e 44 277 2.0
e 45 130 2.0
e 46 297 4.0
e 49 37 66.0
e 49 30 60.0
e 49 187 95.0
e 49 26 86.0
e 49 308 20.0
e 49 181 95.0
e 49 182 80.0
e 49 194 31.0
e 49 243 17.0
e 49 0 72.0
e 49 315 97.0
e 49 223 3.0
e 49 245 12.0
e 49 309 71.0
e 49 131 19.0
e 49 255 20.0
e 50 123 4.0
e 52 26 47.0
e 52 202 24.0
e 52 111 80.0
e 52 173 61.0
e 52 121 82.0
e 52 210 40.0
e 52 51 49.0
e 52 109 85.0
e 52 290 82.0
e 52 282 68.0
e 52 263 5.0
e 52 112 82.0
e 52 67 74.0
e 52 273 18.0
e 52 38 44.0
e 52 85 2.0
e 52 34 30.0
e 53 139 14.0
e 55 113 3.0
e 55 247 6.0
e 56 164 2.0
e 57 203 2.0
e 58 31 1.0
e 59 124 95.0
e 59 117 92.0
e 59 81 81.0
e 59 273 22.0
e 59 37 83.0
e 59 172 72.0
e 59 213 97.0
e 59 193 35.0
e 59 241 53.0
e 59 133 30.0
e 59 85 86.0
e 59 242 61.0
e 59 28 60.0
e 59 196 63.0
e 59 316 33.0
e 59 254 39.0
e 59 255 94.0
e 60 172 4.0
e 61 40 7.0
e 61 313 5.0
e 61 89 9.0
e 62 77 1.0
e 64 290 9.0
e 67 119 10.0
e 67 113 22.0
e 67 121 4.0
e 68 147 7.0
e 68 254 11.0
e 68 157 19.0
e 69 140 3.0
e 69 14 30.0
e 70 147 3.0
e 71 272 2.0
e 73 190 11.0
e 73 64 6.0
e 74 43 1.0
e 75 248 6.0
e 76 89 2.0
e 76 148 7.0
e 78 288 1.0
e 78 189 48.0
e 78 104 1.0
e 78 121 1.0
e 79 148 11.0
e 80 100 3.0
e 80 308 5.0
e 82 115 5.0
e 82 41 4.0
e 83 94 1.0
e 84 183 98.0
e 84 123 58.0
e 84 80 19.0
e 84 88 54.0
e 84 43 44.0
e 84 189 60.0
e 84 227 65.0
e 84 291 76.0
e 84 148 34.0
e 84 233 62.0
e 84 247 39.0
e 84 266 8.0
e 84 17 89.0
e 84 133 86.0
e 84 173 42.0
e 84 181 37.0
e 86 187 7.0
e 86 298 6.0
e 86 295 1.0
e 90 208 12.0
e 90 210 11.0
e 90 86 1.0
e 91 274 1.0
e 92 83 81.0
e 92 288 50.0
e 92 227 81.0
e 92 141 9.0
e 92 293 54.0
e 92 1 54.0
e 92 18 33.0
e 92 14 51.0
e 92 258 50.0
e 92 2 33.0
e 92 230 83.0
e 92 49 15.0
e 92 25 62.0
e 92 60 63.0
e 92 285 94.0
e 92 61 24.0
e 92 278 23.0
e 93 182 10.0
e 93 233 4.0
e 93 206 11.0
e 95 237 3.0
e 95 104 4.0
e 97 254 1.0
e 97 78 24.0
e 98 93 69.0
e 98 76 25.0
e 98 172 87.0
e 98 31 17.0
e 98 226 62.0
e 98 215 64.0
e 98 102 27.0
e 98 268 83.0
e 98 176 84.0
e 98 135 65.0
e 98 307 12.0
e 98 201 47.0
e 98 37 93.0
e 98 89 86.0
e 98 262 92.0
e 98 156 95.0
e 98 254 64.0
e 99 317 3.0
e 100 45 4.0
e 101 170 1.0
e 105 263 8.0
e 105 255 9.0
e 105 314 9.0
e 106 284 3.0
e 106 294 17.0
e 106 198 17.0
e 106 103 2.0
e 106 117 19.0
e 107 41 2.0
e 108 315 2.0
e 112 34 7.0
e 114 211 4.0
e 115 113 4.0
e 116 148 11.0
e 118 248 2.0
e 118 304 3.0
e 118 124 4.0
e 119 2 9.0
e 119 94 10.0
e 120 227 2.0
e 120 218 2.0
e 122 282 96.0
e 126 217 56.0
e 126 142 9.0
e 126 22 11.0
e 127 250 9.0
e 128 221 88.0
e 128 173 99.0
e 128 26 15.0
e 128 142 37.0
e 128 136 69.0
e 128 8 95.0
e 128 92 39.0
e 128 13 17.0
e 128 253 89.0
e 128 264 74.0
e 128 73 37.0
e 128 273 65.0
e 128 2 51.0
e 128 138 39.0
e 128 259 98.0
e 128 182 15.0
e 128 33 38.0
e 129 240 10.0
e 129 114 11.0
e 129 3 11.0
e 129 81 9.0
e 129 276 7.0
e 132 20 3.0
e 132 78 5.0
e 135 280 30.0
e 135 304 56.0
e 135 170 84.0
e 135 189 48.0
e 135 30 49.0
e 135 47 68.0
e 135 272 34.0
e 135 263 80.0
e 135 139 84.0
e 135 96 27.0
e 135 171 23.0
e 135 312 26.0
e 135 136 10.0
e 135 144 63.0
e 135 1 80.0
e 137 63 1.0
e 137 213 10.0
e 137 170 11.0
e 137 222 5.0
e 137 125 4.0
e 139 247 23.0
e 139 233 24.0
e 139 194 15.0
e 142 19 1.0
e 143 57 1.0
e 150 6 8.0
e 151 89 7.0
e 151 169 1.0
e 151 76 7.0
e 152 216 24.0
e 152 221 7.0
e 152 226 10.0
e 153 109 1.0
e 153 114 4.0
e 154 14 20.0
e 154 111 4.0
e 155 229 5.0
e 156 243 47.0
e 156 241 8.0
e 156 29 21.0
e 156 176 7.0
e 156 205 92.0
e 156 204 32.0
e 156 35 100.0
e 156 177 23.0
e 156 82 26.0
e 156 191 40.0
e 156 167 78.0
e 156 114 20.0
e 156 181 94.0
e 156 293 31.0
e 156 203 4.0
e 157 191 10.0
e 157 24 28.0
e 157 103 3.0
e 157 122 8.0
e 157 300 40.0
e 157 7 49.0
e 157 100 4.0
e 157 151 1.0
e 158 315 4.0
e 158 48 2.0
e 159 175 3.0
e 159 24 25.0
e 160 115 4.0
e 160 92 98.0
e 160 174 10.0
e 162 19 1.0
e 164 286 1.0
e 165 162 2.0
e 166 39 2.0
e 175 260 2.0
e 178 80 11.0
e 178 35 5.0
e 179 44 2.0
e 179 255 1.0
e 179 8 11.0
e 179 172 25.0
e 179 24 12.0
e 183 209 9.0
e 184 136 6.0
e 189 222 1.0
e 189 7 20.0
e 189 18 16.0
e 189 162 9.0
e 190 177 5.0
e 192 61 1.0
e 192 261 1.0
e 193 22 3.0
e 194 289 1.0
e 194 32 13.0
e 194 193 1.0
e 197 4 6.0
e 198 173 1.0
e 198 272 10.0
e 198 82 1.0
e 198 168 11.0
e 199 255 7.0
e 199 283 29.0
e 199 73 20.0
e 199 147 10.0
e 199 29 1.0
e 200 265 5.0
e 202 259 4.0
e 204 80 2.0
e 205 11 11.0
e 205 90 1.0
e 206 175 1.0
e 206 316 1.0
e 206 48 12.0
e 206 63 18.0
e 207 184 2.0
e 207 117 3.0
e 207 3 7.0
e 208 171 38.0
e 208 118 94.0
e 208 299 47.0
e 208 209 25.0
e 208 178 47.0
e 208 207 62.0
e 208 179 76.0
e 208 35 95.0
e 208 132 37.0
e 208 310 23.0
e 208 279 32.0
e 208 49 58.0
e 208 246 2.0
e 208 8 41.0
e 209 243 5.0
e 211 197 5.0
e 211 44 10.0
e 212 76 37.0
e 212 217 9.0
e 212 282 68.0
e 212 309 39.0
e 212 83 47.0
e 212 93 93.0
e 212 256 75.0
e 212 135 93.0
e 212 274 50.0
e 212 23 44.0
e 212 211 22.0
e 212 78 12.0
e 212 79 26.0
e 212 129 61.0
e 212 15 39.0
e 212 136 58.0
e 214 58 5.0
e 214 216 23.0
e 216 163 5.0
e 216 5 82.0
e 216 109 5.0
e 217 183 6.0
e 217 17 76.0
e 217 174 35.0
e 217 44 32.0
e 217 82 54.0
e 217 27 18.0
e 217 96 32.0
e 217 199 25.0
e 217 132 72.0
e 217 247 22.0
e 217 51 21.0
e 217 161 96.0
e 217 290 92.0
e 217 85 58.0
e 219 179 98.0
e 219 7 72.0
e 219 39 30.0
e 219 306 95.0
e 219 299 31.0
e 219 72 97.0
e 219 40 4.0
e 219 258 4.0
e 219 271 89.0
e 219 240 96.0
e 219 218 72.0
e 219 261 73.0
e 219 183 78.0
e 219 1 64.0
e 219 264 73.0
e 219 83 54.0
e 220 259 3.0
e 220 100 1.0
e 224 116 1.0
e 228 128 43.0
e 229 150 7.0
e 229 186 1.0
e 230 169 53.0
e 230 179 45.0
e 230 84 96.0
e 230 139 100.0
e 230 294 83.0
e 230 204 56.0
e 230 12 84.0
e 230 140 33.0
e 230 311 3.0
e 230 61 74.0
e 230 135 15.0
e 230 15 70.0
e 230 154 77.0
e 230 46 93.0
e 230 155 41.0
e 230 180 33.0
e 231 136 6.0
e 231 141 1.0
e 232 56 2.0
e 232 261 1.0
e 234 174 1.0
e 235 79 1.0
e 238 230 46.0
e 238 217 38.0
e 239 290 16.0
e 244 272 1.0
e 246 203 5.0
e 250 293 8.0
e 250 259 1.0
e 250 183 9.0
e 250 117 13.0
e 251 118 12.0
e 251 4 3.0
e 252 276 82.0
e 252 20 25.0
e 252 86 80.0
e 252 270 36.0
e 252 207 61.0
e 252 10 89.0
e 252 84 31.0
e 252 173 58.0
e 252 88 60.0
e 252 128 50.0
e 252 306 73.0
e 252 201 16.0
e 252 193 43.0
e 252 72 75.0
e 252 232 99.0
e 252 15 44.0
e 252 77 41.0
e 257 181 7.0
e 257 268 11.0
e 257 36 5.0
e 258 29 4.0
e 262 42 91.0
e 265 95 1.0
e 267 225 7.0
e 267 184 10.0
e 267 128 84.0
e 269 212 51.0
e 269 4 1.0
e 270 65 1.0
e 270 206 12.0
e 275 85 4.0
e 275 309 2.0
e 276 144 8.0
e 281 224 2.0
e 282 135 86.0
e 282 258 23.0
e 282 45 61.0
e 282 246 52.0
e 282 72 68.0
e 282 49 40.0
e 282 235 38.0
e 282 137 41.0
e 282 46 47.0
e 282 264 31.0
e 282 145 26.0
e 282 27 99.0
e 282 57 70.0
e 282 209 61.0
e 283 5 34.0
e 283 261 64.0
e 283 186 35.0
e 283 96 64.0
e 283 93 61.0
e 283 164 47.0
e 283 134 35.0
e 283 307 40.0
e 283 158 89.0
e 283 30 19.0
e 283 208 39.0
e 283 48 17.0
e 283 162 99.0
e 283 189 72.0
e 283 53 15.0
e 283 311 64.0
e 284 110 2.0
e 284 147 9.0
e 285 216 6.0
e 287 237 2.0
e 289 53 16.0
e 289 84 38.0
e 290 74 27.0
e 290 126 32.0
e 290 69 22.0
e 290 306 25.0
e 292 85 1.0
e 292 215 5.0
e 295 54 11.0
e 295 305 5.0
e 297 50 5.0
e 298 296 2.0
e 301 16 1.0
e 302 295 9.0
e 303 139 14.0
e 307 284 5.0
e 318 182 4.0
e 318 274 3.0
e 319 149 1.0
